NAME e2esliceiso
OBJSENSE MAX
ROWS
 N  OBJ
 G  mips_limit_1_0_0_0
 L  mips_limit_2_0_0_0
 G  mips_limit_1_0_0_1
 L  mips_limit_2_0_0_1
 G  mips_limit_1_0_0_2
 L  mips_limit_2_0_0_2
 G  link_path_mapping_coordination_1_0_0_0_0
 G  link_path_mapping_coordination_1_0_0_1_0
 G  link_path_mapping_coordination_1_0_0_2_0
 G  link_path_mapping_coordination_1_0_0_3_0
 G  link_path_mapping_coordination_1_0_0_4_0
 G  link_path_mapping_coordination_1_0_0_5_0
 G  link_path_mapping_coordination_1_0_0_6_0
 G  link_path_mapping_coordination_1_0_0_7_0
 L  link_path_mapping_coordination_2_0_0_0_0
 L  link_path_mapping_coordination_2_0_0_1_0
 L  link_path_mapping_coordination_2_0_0_2_0
 L  link_path_mapping_coordination_2_0_0_3_0
 L  link_path_mapping_coordination_2_0_0_4_0
 L  link_path_mapping_coordination_2_0_0_5_0
 L  link_path_mapping_coordination_2_0_0_6_0
 L  link_path_mapping_coordination_2_0_0_7_0
 L  node_path_mapping_coordination_1_0_0_0
 L  node_path_mapping_coordination_1_0_0_1
 L  node_path_mapping_coordination_1_0_0_2
 L  node_path_mapping_coordination_2_0_0_0
 L  node_path_mapping_coordination_2_0_0_1
 G  bandwidth_overprovisioning_3_0_0
 G  mips_limit_1_1_0_0
 L  mips_limit_2_1_0_0
 G  mips_limit_1_1_0_1
 L  mips_limit_2_1_0_1
 G  mips_limit_1_1_0_2
 L  mips_limit_2_1_0_2
 G  link_path_mapping_coordination_1_1_0_0_0
 G  link_path_mapping_coordination_1_1_0_1_0
 G  link_path_mapping_coordination_1_1_0_2_0
 G  link_path_mapping_coordination_1_1_0_3_0
 G  link_path_mapping_coordination_1_1_0_4_0
 G  link_path_mapping_coordination_1_1_0_5_0
 G  link_path_mapping_coordination_1_1_0_6_0
 G  link_path_mapping_coordination_1_1_0_7_0
 L  link_path_mapping_coordination_2_1_0_0_0
 L  link_path_mapping_coordination_2_1_0_1_0
 L  link_path_mapping_coordination_2_1_0_2_0
 L  link_path_mapping_coordination_2_1_0_3_0
 L  link_path_mapping_coordination_2_1_0_4_0
 L  link_path_mapping_coordination_2_1_0_5_0
 L  link_path_mapping_coordination_2_1_0_6_0
 L  link_path_mapping_coordination_2_1_0_7_0
 L  node_path_mapping_coordination_1_1_0_0
 L  node_path_mapping_coordination_1_1_0_1
 L  node_path_mapping_coordination_1_1_0_2
 L  node_path_mapping_coordination_2_1_0_0
 L  node_path_mapping_coordination_2_1_0_1
 G  bandwidth_overprovisioning_3_1_0
 G  mips_limit_1_2_0_0
 L  mips_limit_2_2_0_0
 G  mips_limit_1_2_0_1
 L  mips_limit_2_2_0_1
 G  mips_limit_1_2_0_2
 L  mips_limit_2_2_0_2
 G  link_path_mapping_coordination_1_2_0_0_0
 G  link_path_mapping_coordination_1_2_0_1_0
 G  link_path_mapping_coordination_1_2_0_2_0
 G  link_path_mapping_coordination_1_2_0_3_0
 G  link_path_mapping_coordination_1_2_0_4_0
 G  link_path_mapping_coordination_1_2_0_5_0
 G  link_path_mapping_coordination_1_2_0_6_0
 G  link_path_mapping_coordination_1_2_0_7_0
 L  link_path_mapping_coordination_2_2_0_0_0
 L  link_path_mapping_coordination_2_2_0_1_0
 L  link_path_mapping_coordination_2_2_0_2_0
 L  link_path_mapping_coordination_2_2_0_3_0
 L  link_path_mapping_coordination_2_2_0_4_0
 L  link_path_mapping_coordination_2_2_0_5_0
 L  link_path_mapping_coordination_2_2_0_6_0
 L  link_path_mapping_coordination_2_2_0_7_0
 L  node_path_mapping_coordination_1_2_0_0
 L  node_path_mapping_coordination_1_2_0_1
 L  node_path_mapping_coordination_1_2_0_2
 L  node_path_mapping_coordination_2_2_0_0
 L  node_path_mapping_coordination_2_2_0_1
 G  bandwidth_overprovisioning_3_2_0
 G  mips_limit_1_3_0_0
 L  mips_limit_2_3_0_0
 G  mips_limit_1_3_0_1
 L  mips_limit_2_3_0_1
 G  mips_limit_1_3_0_2
 L  mips_limit_2_3_0_2
 G  link_path_mapping_coordination_1_3_0_0_0
 G  link_path_mapping_coordination_1_3_0_1_0
 G  link_path_mapping_coordination_1_3_0_2_0
 G  link_path_mapping_coordination_1_3_0_3_0
 G  link_path_mapping_coordination_1_3_0_4_0
 G  link_path_mapping_coordination_1_3_0_5_0
 G  link_path_mapping_coordination_1_3_0_6_0
 G  link_path_mapping_coordination_1_3_0_7_0
 L  link_path_mapping_coordination_2_3_0_0_0
 L  link_path_mapping_coordination_2_3_0_1_0
 L  link_path_mapping_coordination_2_3_0_2_0
 L  link_path_mapping_coordination_2_3_0_3_0
 L  link_path_mapping_coordination_2_3_0_4_0
 L  link_path_mapping_coordination_2_3_0_5_0
 L  link_path_mapping_coordination_2_3_0_6_0
 L  link_path_mapping_coordination_2_3_0_7_0
 L  node_path_mapping_coordination_1_3_0_0
 L  node_path_mapping_coordination_1_3_0_1
 L  node_path_mapping_coordination_1_3_0_2
 L  node_path_mapping_coordination_2_3_0_0
 L  node_path_mapping_coordination_2_3_0_1
 G  bandwidth_overprovisioning_3_3_0
 G  mips_limit_1_4_0_0
 L  mips_limit_2_4_0_0
 G  mips_limit_1_4_0_1
 L  mips_limit_2_4_0_1
 G  mips_limit_1_4_0_2
 L  mips_limit_2_4_0_2
 L  mips_max_limit_1_0
 L  mips_max_limit_1_1
 L  mips_max_limit_1_2
 L  mips_max_limit_2_0
 L  mips_max_limit_2_1
 L  mips_max_limit_2_2
 L  radio_max_limit_0_0
 L  radio_max_limit_1_0
 G  link_path_mapping_coordination_1_4_0_0_0
 G  link_path_mapping_coordination_1_4_0_1_0
 G  link_path_mapping_coordination_1_4_0_2_0
 G  link_path_mapping_coordination_1_4_0_3_0
 G  link_path_mapping_coordination_1_4_0_4_0
 G  link_path_mapping_coordination_1_4_0_5_0
 G  link_path_mapping_coordination_1_4_0_6_0
 G  link_path_mapping_coordination_1_4_0_7_0
 L  link_path_mapping_coordination_2_4_0_0_0
 L  link_path_mapping_coordination_2_4_0_1_0
 L  link_path_mapping_coordination_2_4_0_2_0
 L  link_path_mapping_coordination_2_4_0_3_0
 L  link_path_mapping_coordination_2_4_0_4_0
 L  link_path_mapping_coordination_2_4_0_5_0
 L  link_path_mapping_coordination_2_4_0_6_0
 L  link_path_mapping_coordination_2_4_0_7_0
 L  node_path_mapping_coordination_1_4_0_0
 L  node_path_mapping_coordination_1_4_0_1
 L  node_path_mapping_coordination_1_4_0_2
 L  node_path_mapping_coordination_2_4_0_0
 L  node_path_mapping_coordination_2_4_0_1
 G  bandwidth_overprovisioning_3_4_0
 L  bandwidth_max_limit_0_0
 L  bandwidth_max_limit_1_0
 L  bandwidth_max_limit_2_0
 L  bandwidth_max_limit_3_0
 L  bandwidth_max_limit_4_0
 L  bandwidth_max_limit_5_0
 L  bandwidth_max_limit_6_0
 L  bandwidth_max_limit_7_0
 G  minimum_profit
COLUMNS
    c_0_0_0   OBJ       99
    c_0_0_0   mips_limit_1_0_0_0  1
    c_0_0_0   mips_limit_2_0_0_0  1
    c_0_0_0   mips_max_limit_1_0  1
    c_0_0_0   minimum_profit  99
    c_0_0_1   OBJ       99
    c_0_0_1   mips_limit_1_0_0_1  1
    c_0_0_1   mips_limit_2_0_0_1  1
    c_0_0_1   mips_max_limit_1_1  1
    c_0_0_1   minimum_profit  99
    c_0_0_2   OBJ       99
    c_0_0_2   mips_limit_1_0_0_2  1
    c_0_0_2   mips_limit_2_0_0_2  1
    c_0_0_2   mips_max_limit_1_2  1
    c_0_0_2   minimum_profit  99
    b_0_0_0_0_0  OBJ       0.0994
    b_0_0_0_0_0  link_path_mapping_coordination_1_0_0_0_0  1
    b_0_0_0_0_0  link_path_mapping_coordination_2_0_0_0_0  0.995
    b_0_0_0_0_0  node_path_mapping_coordination_1_0_0_0  0.995
    b_0_0_0_0_0  node_path_mapping_coordination_2_0_0_0  0.995
    b_0_0_0_0_0  bandwidth_overprovisioning_3_0_0  -0.995
    b_0_0_0_0_0  bandwidth_max_limit_0_0  1
    b_0_0_0_0_0  minimum_profit  0.0994
    b_0_0_1_0_0  OBJ       0.0994
    b_0_0_1_0_0  link_path_mapping_coordination_1_0_0_1_0  1
    b_0_0_1_0_0  link_path_mapping_coordination_2_0_0_1_0  0.995
    b_0_0_1_0_0  node_path_mapping_coordination_1_0_0_0  0.995
    b_0_0_1_0_0  node_path_mapping_coordination_2_0_0_1  0.995
    b_0_0_1_0_0  bandwidth_overprovisioning_3_0_0  -0.995
    b_0_0_1_0_0  bandwidth_max_limit_1_0  1
    b_0_0_1_0_0  minimum_profit  0.0994
    b_0_0_2_0_0  OBJ       0.0994
    b_0_0_2_0_0  link_path_mapping_coordination_1_0_0_2_0  1
    b_0_0_2_0_0  link_path_mapping_coordination_2_0_0_2_0  0.995
    b_0_0_2_0_0  node_path_mapping_coordination_1_0_0_1  0.995
    b_0_0_2_0_0  node_path_mapping_coordination_2_0_0_0  0.995
    b_0_0_2_0_0  bandwidth_overprovisioning_3_0_0  -0.995
    b_0_0_2_0_0  bandwidth_max_limit_2_0  1
    b_0_0_2_0_0  minimum_profit  0.0994
    b_0_0_3_0_0  OBJ       0.0994
    b_0_0_3_0_0  link_path_mapping_coordination_1_0_0_3_0  1
    b_0_0_3_0_0  link_path_mapping_coordination_2_0_0_3_0  0.995
    b_0_0_3_0_0  node_path_mapping_coordination_1_0_0_1  0.995
    b_0_0_3_0_0  node_path_mapping_coordination_2_0_0_1  0.995
    b_0_0_3_0_0  bandwidth_overprovisioning_3_0_0  -0.995
    b_0_0_3_0_0  bandwidth_max_limit_3_0  1
    b_0_0_3_0_0  minimum_profit  0.0994
    b_0_0_4_0_0  OBJ       0.0994
    b_0_0_4_0_0  link_path_mapping_coordination_1_0_0_4_0  1
    b_0_0_4_0_0  link_path_mapping_coordination_2_0_0_4_0  0.995
    b_0_0_4_0_0  node_path_mapping_coordination_1_0_0_2  0.995
    b_0_0_4_0_0  node_path_mapping_coordination_2_0_0_0  0.995
    b_0_0_4_0_0  bandwidth_overprovisioning_3_0_0  -0.995
    b_0_0_4_0_0  bandwidth_max_limit_4_0  1
    b_0_0_4_0_0  minimum_profit  0.0994
    b_0_0_5_0_0  OBJ       0.0994
    b_0_0_5_0_0  link_path_mapping_coordination_1_0_0_5_0  1
    b_0_0_5_0_0  link_path_mapping_coordination_2_0_0_5_0  0.995
    b_0_0_5_0_0  node_path_mapping_coordination_1_0_0_2  0.995
    b_0_0_5_0_0  node_path_mapping_coordination_2_0_0_1  0.995
    b_0_0_5_0_0  bandwidth_overprovisioning_3_0_0  -0.995
    b_0_0_5_0_0  bandwidth_max_limit_5_0  1
    b_0_0_5_0_0  minimum_profit  0.0994
    b_0_0_6_0_0  OBJ       -0.0001
    b_0_0_6_0_0  link_path_mapping_coordination_1_0_0_6_0  1
    b_0_0_6_0_0  link_path_mapping_coordination_2_0_0_6_0  0.995
    b_0_0_6_0_0  node_path_mapping_coordination_1_0_0_0  0.995
    b_0_0_6_0_0  bandwidth_max_limit_6_0  1
    b_0_0_6_0_0  minimum_profit  -0.0001
    b_0_0_7_0_0  OBJ       -0.0001
    b_0_0_7_0_0  link_path_mapping_coordination_1_0_0_7_0  1
    b_0_0_7_0_0  link_path_mapping_coordination_2_0_0_7_0  0.995
    b_0_0_7_0_0  node_path_mapping_coordination_1_0_0_1  0.995
    b_0_0_7_0_0  bandwidth_max_limit_7_0  1
    b_0_0_7_0_0  minimum_profit  -0.0001
    b_0_0_0_1_0  OBJ       0
    b_0_0_0_2_0  OBJ       0
    b_0_0_0_3_0  OBJ       0
    b_0_0_0_4_0  OBJ       0
    b_0_0_0_5_0  OBJ       0
    b_0_0_0_6_0  OBJ       0
    b_0_0_0_7_0  OBJ       0
    b_0_0_1_1_0  OBJ       0
    b_0_0_1_2_0  OBJ       0
    b_0_0_1_3_0  OBJ       0
    b_0_0_1_4_0  OBJ       0
    b_0_0_1_5_0  OBJ       0
    b_0_0_1_6_0  OBJ       0
    b_0_0_1_7_0  OBJ       0
    b_0_0_2_1_0  OBJ       0
    b_0_0_2_2_0  OBJ       0
    b_0_0_2_3_0  OBJ       0
    b_0_0_2_4_0  OBJ       0
    b_0_0_2_5_0  OBJ       0
    b_0_0_2_6_0  OBJ       0
    b_0_0_2_7_0  OBJ       0
    b_0_0_3_1_0  OBJ       0
    b_0_0_3_2_0  OBJ       0
    b_0_0_3_3_0  OBJ       0
    b_0_0_3_4_0  OBJ       0
    b_0_0_3_5_0  OBJ       0
    b_0_0_3_6_0  OBJ       0
    b_0_0_3_7_0  OBJ       0
    b_0_0_4_1_0  OBJ       0
    b_0_0_4_2_0  OBJ       0
    b_0_0_4_3_0  OBJ       0
    b_0_0_4_4_0  OBJ       0
    b_0_0_4_5_0  OBJ       0
    b_0_0_4_6_0  OBJ       0
    b_0_0_4_7_0  OBJ       0
    b_0_0_5_1_0  OBJ       0
    b_0_0_5_2_0  OBJ       0
    b_0_0_5_3_0  OBJ       0
    b_0_0_5_4_0  OBJ       0
    b_0_0_5_5_0  OBJ       0
    b_0_0_5_6_0  OBJ       0
    b_0_0_5_7_0  OBJ       0
    b_0_0_6_1_0  OBJ       0
    b_0_0_6_2_0  OBJ       0
    b_0_0_6_3_0  OBJ       0
    b_0_0_6_4_0  OBJ       0
    b_0_0_6_5_0  OBJ       0
    b_0_0_6_6_0  OBJ       0
    b_0_0_6_7_0  OBJ       0
    b_0_0_7_1_0  OBJ       0
    b_0_0_7_2_0  OBJ       0
    b_0_0_7_3_0  OBJ       0
    b_0_0_7_4_0  OBJ       0
    b_0_0_7_5_0  OBJ       0
    b_0_0_7_6_0  OBJ       0
    b_0_0_7_7_0  OBJ       0
    c_1_0_0   OBJ       99
    c_1_0_0   mips_limit_1_1_0_0  1
    c_1_0_0   mips_limit_2_1_0_0  1
    c_1_0_0   mips_max_limit_1_0  1
    c_1_0_0   minimum_profit  99
    c_1_0_1   OBJ       99
    c_1_0_1   mips_limit_1_1_0_1  1
    c_1_0_1   mips_limit_2_1_0_1  1
    c_1_0_1   mips_max_limit_1_1  1
    c_1_0_1   minimum_profit  99
    c_1_0_2   OBJ       99
    c_1_0_2   mips_limit_1_1_0_2  1
    c_1_0_2   mips_limit_2_1_0_2  1
    c_1_0_2   mips_max_limit_1_2  1
    c_1_0_2   minimum_profit  99
    b_1_0_0_0_0  OBJ       0.0994
    b_1_0_0_0_0  link_path_mapping_coordination_1_1_0_0_0  1
    b_1_0_0_0_0  link_path_mapping_coordination_2_1_0_0_0  0.995
    b_1_0_0_0_0  node_path_mapping_coordination_1_1_0_0  0.995
    b_1_0_0_0_0  node_path_mapping_coordination_2_1_0_0  0.995
    b_1_0_0_0_0  bandwidth_overprovisioning_3_1_0  -0.995
    b_1_0_0_0_0  bandwidth_max_limit_0_0  1
    b_1_0_0_0_0  minimum_profit  0.0994
    b_1_0_1_0_0  OBJ       0.0994
    b_1_0_1_0_0  link_path_mapping_coordination_1_1_0_1_0  1
    b_1_0_1_0_0  link_path_mapping_coordination_2_1_0_1_0  0.995
    b_1_0_1_0_0  node_path_mapping_coordination_1_1_0_0  0.995
    b_1_0_1_0_0  node_path_mapping_coordination_2_1_0_1  0.995
    b_1_0_1_0_0  bandwidth_overprovisioning_3_1_0  -0.995
    b_1_0_1_0_0  bandwidth_max_limit_1_0  1
    b_1_0_1_0_0  minimum_profit  0.0994
    b_1_0_2_0_0  OBJ       0.0994
    b_1_0_2_0_0  link_path_mapping_coordination_1_1_0_2_0  1
    b_1_0_2_0_0  link_path_mapping_coordination_2_1_0_2_0  0.995
    b_1_0_2_0_0  node_path_mapping_coordination_1_1_0_1  0.995
    b_1_0_2_0_0  node_path_mapping_coordination_2_1_0_0  0.995
    b_1_0_2_0_0  bandwidth_overprovisioning_3_1_0  -0.995
    b_1_0_2_0_0  bandwidth_max_limit_2_0  1
    b_1_0_2_0_0  minimum_profit  0.0994
    b_1_0_3_0_0  OBJ       0.0994
    b_1_0_3_0_0  link_path_mapping_coordination_1_1_0_3_0  1
    b_1_0_3_0_0  link_path_mapping_coordination_2_1_0_3_0  0.995
    b_1_0_3_0_0  node_path_mapping_coordination_1_1_0_1  0.995
    b_1_0_3_0_0  node_path_mapping_coordination_2_1_0_1  0.995
    b_1_0_3_0_0  bandwidth_overprovisioning_3_1_0  -0.995
    b_1_0_3_0_0  bandwidth_max_limit_3_0  1
    b_1_0_3_0_0  minimum_profit  0.0994
    b_1_0_4_0_0  OBJ       0.0994
    b_1_0_4_0_0  link_path_mapping_coordination_1_1_0_4_0  1
    b_1_0_4_0_0  link_path_mapping_coordination_2_1_0_4_0  0.995
    b_1_0_4_0_0  node_path_mapping_coordination_1_1_0_2  0.995
    b_1_0_4_0_0  node_path_mapping_coordination_2_1_0_0  0.995
    b_1_0_4_0_0  bandwidth_overprovisioning_3_1_0  -0.995
    b_1_0_4_0_0  bandwidth_max_limit_4_0  1
    b_1_0_4_0_0  minimum_profit  0.0994
    b_1_0_5_0_0  OBJ       0.0994
    b_1_0_5_0_0  link_path_mapping_coordination_1_1_0_5_0  1
    b_1_0_5_0_0  link_path_mapping_coordination_2_1_0_5_0  0.995
    b_1_0_5_0_0  node_path_mapping_coordination_1_1_0_2  0.995
    b_1_0_5_0_0  node_path_mapping_coordination_2_1_0_1  0.995
    b_1_0_5_0_0  bandwidth_overprovisioning_3_1_0  -0.995
    b_1_0_5_0_0  bandwidth_max_limit_5_0  1
    b_1_0_5_0_0  minimum_profit  0.0994
    b_1_0_6_0_0  OBJ       -0.0001
    b_1_0_6_0_0  link_path_mapping_coordination_1_1_0_6_0  1
    b_1_0_6_0_0  link_path_mapping_coordination_2_1_0_6_0  0.995
    b_1_0_6_0_0  node_path_mapping_coordination_1_1_0_0  0.995
    b_1_0_6_0_0  bandwidth_max_limit_6_0  1
    b_1_0_6_0_0  minimum_profit  -0.0001
    b_1_0_7_0_0  OBJ       -0.0001
    b_1_0_7_0_0  link_path_mapping_coordination_1_1_0_7_0  1
    b_1_0_7_0_0  link_path_mapping_coordination_2_1_0_7_0  0.995
    b_1_0_7_0_0  node_path_mapping_coordination_1_1_0_1  0.995
    b_1_0_7_0_0  bandwidth_max_limit_7_0  1
    b_1_0_7_0_0  minimum_profit  -0.0001
    b_1_0_0_1_0  OBJ       0
    b_1_0_0_2_0  OBJ       0
    b_1_0_0_3_0  OBJ       0
    b_1_0_0_4_0  OBJ       0
    b_1_0_0_5_0  OBJ       0
    b_1_0_0_6_0  OBJ       0
    b_1_0_0_7_0  OBJ       0
    b_1_0_1_1_0  OBJ       0
    b_1_0_1_2_0  OBJ       0
    b_1_0_1_3_0  OBJ       0
    b_1_0_1_4_0  OBJ       0
    b_1_0_1_5_0  OBJ       0
    b_1_0_1_6_0  OBJ       0
    b_1_0_1_7_0  OBJ       0
    b_1_0_2_1_0  OBJ       0
    b_1_0_2_2_0  OBJ       0
    b_1_0_2_3_0  OBJ       0
    b_1_0_2_4_0  OBJ       0
    b_1_0_2_5_0  OBJ       0
    b_1_0_2_6_0  OBJ       0
    b_1_0_2_7_0  OBJ       0
    b_1_0_3_1_0  OBJ       0
    b_1_0_3_2_0  OBJ       0
    b_1_0_3_3_0  OBJ       0
    b_1_0_3_4_0  OBJ       0
    b_1_0_3_5_0  OBJ       0
    b_1_0_3_6_0  OBJ       0
    b_1_0_3_7_0  OBJ       0
    b_1_0_4_1_0  OBJ       0
    b_1_0_4_2_0  OBJ       0
    b_1_0_4_3_0  OBJ       0
    b_1_0_4_4_0  OBJ       0
    b_1_0_4_5_0  OBJ       0
    b_1_0_4_6_0  OBJ       0
    b_1_0_4_7_0  OBJ       0
    b_1_0_5_1_0  OBJ       0
    b_1_0_5_2_0  OBJ       0
    b_1_0_5_3_0  OBJ       0
    b_1_0_5_4_0  OBJ       0
    b_1_0_5_5_0  OBJ       0
    b_1_0_5_6_0  OBJ       0
    b_1_0_5_7_0  OBJ       0
    b_1_0_6_1_0  OBJ       0
    b_1_0_6_2_0  OBJ       0
    b_1_0_6_3_0  OBJ       0
    b_1_0_6_4_0  OBJ       0
    b_1_0_6_5_0  OBJ       0
    b_1_0_6_6_0  OBJ       0
    b_1_0_6_7_0  OBJ       0
    b_1_0_7_1_0  OBJ       0
    b_1_0_7_2_0  OBJ       0
    b_1_0_7_3_0  OBJ       0
    b_1_0_7_4_0  OBJ       0
    b_1_0_7_5_0  OBJ       0
    b_1_0_7_6_0  OBJ       0
    b_1_0_7_7_0  OBJ       0
    c_2_0_0   OBJ       10000
    c_2_0_0   mips_limit_1_2_0_0  1
    c_2_0_0   mips_limit_2_2_0_0  1
    c_2_0_0   mips_max_limit_1_0  1
    c_2_0_0   minimum_profit  10000
    c_2_0_1   OBJ       10000
    c_2_0_1   mips_limit_1_2_0_1  1
    c_2_0_1   mips_limit_2_2_0_1  1
    c_2_0_1   mips_max_limit_1_1  1
    c_2_0_1   minimum_profit  10000
    c_2_0_2   OBJ       10000
    c_2_0_2   mips_limit_1_2_0_2  1
    c_2_0_2   mips_limit_2_2_0_2  1
    c_2_0_2   mips_max_limit_1_2  1
    c_2_0_2   minimum_profit  10000
    b_2_0_0_0_0  OBJ       10000
    b_2_0_0_0_0  link_path_mapping_coordination_1_2_0_0_0  1
    b_2_0_0_0_0  link_path_mapping_coordination_2_2_0_0_0  1
    b_2_0_0_0_0  node_path_mapping_coordination_1_2_0_0  1
    b_2_0_0_0_0  node_path_mapping_coordination_2_2_0_0  1
    b_2_0_0_0_0  bandwidth_overprovisioning_3_2_0  -1
    b_2_0_0_0_0  bandwidth_max_limit_0_0  1
    b_2_0_0_0_0  minimum_profit  10000
    b_2_0_1_0_0  OBJ       10000
    b_2_0_1_0_0  link_path_mapping_coordination_1_2_0_1_0  1
    b_2_0_1_0_0  link_path_mapping_coordination_2_2_0_1_0  1
    b_2_0_1_0_0  node_path_mapping_coordination_1_2_0_0  1
    b_2_0_1_0_0  node_path_mapping_coordination_2_2_0_1  1
    b_2_0_1_0_0  bandwidth_overprovisioning_3_2_0  -1
    b_2_0_1_0_0  bandwidth_max_limit_1_0  1
    b_2_0_1_0_0  minimum_profit  10000
    b_2_0_2_0_0  OBJ       10000
    b_2_0_2_0_0  link_path_mapping_coordination_1_2_0_2_0  1
    b_2_0_2_0_0  link_path_mapping_coordination_2_2_0_2_0  1
    b_2_0_2_0_0  node_path_mapping_coordination_1_2_0_1  1
    b_2_0_2_0_0  node_path_mapping_coordination_2_2_0_0  1
    b_2_0_2_0_0  bandwidth_overprovisioning_3_2_0  -1
    b_2_0_2_0_0  bandwidth_max_limit_2_0  1
    b_2_0_2_0_0  minimum_profit  10000
    b_2_0_3_0_0  OBJ       10000
    b_2_0_3_0_0  link_path_mapping_coordination_1_2_0_3_0  1
    b_2_0_3_0_0  link_path_mapping_coordination_2_2_0_3_0  1
    b_2_0_3_0_0  node_path_mapping_coordination_1_2_0_1  1
    b_2_0_3_0_0  node_path_mapping_coordination_2_2_0_1  1
    b_2_0_3_0_0  bandwidth_overprovisioning_3_2_0  -1
    b_2_0_3_0_0  bandwidth_max_limit_3_0  1
    b_2_0_3_0_0  minimum_profit  10000
    b_2_0_4_0_0  OBJ       10000
    b_2_0_4_0_0  link_path_mapping_coordination_1_2_0_4_0  1
    b_2_0_4_0_0  link_path_mapping_coordination_2_2_0_4_0  1
    b_2_0_4_0_0  node_path_mapping_coordination_1_2_0_2  1
    b_2_0_4_0_0  node_path_mapping_coordination_2_2_0_0  1
    b_2_0_4_0_0  bandwidth_overprovisioning_3_2_0  -1
    b_2_0_4_0_0  bandwidth_max_limit_4_0  1
    b_2_0_4_0_0  minimum_profit  10000
    b_2_0_5_0_0  OBJ       10000
    b_2_0_5_0_0  link_path_mapping_coordination_1_2_0_5_0  1
    b_2_0_5_0_0  link_path_mapping_coordination_2_2_0_5_0  1
    b_2_0_5_0_0  node_path_mapping_coordination_1_2_0_2  1
    b_2_0_5_0_0  node_path_mapping_coordination_2_2_0_1  1
    b_2_0_5_0_0  bandwidth_overprovisioning_3_2_0  -1
    b_2_0_5_0_0  bandwidth_max_limit_5_0  1
    b_2_0_5_0_0  minimum_profit  10000
    b_2_0_6_0_0  link_path_mapping_coordination_1_2_0_6_0  1
    b_2_0_6_0_0  link_path_mapping_coordination_2_2_0_6_0  1
    b_2_0_6_0_0  node_path_mapping_coordination_1_2_0_0  1
    b_2_0_6_0_0  bandwidth_max_limit_6_0  1
    b_2_0_7_0_0  link_path_mapping_coordination_1_2_0_7_0  1
    b_2_0_7_0_0  link_path_mapping_coordination_2_2_0_7_0  1
    b_2_0_7_0_0  node_path_mapping_coordination_1_2_0_1  1
    b_2_0_7_0_0  bandwidth_max_limit_7_0  1
    b_2_0_0_1_0  OBJ       0
    b_2_0_0_2_0  OBJ       0
    b_2_0_0_3_0  OBJ       0
    b_2_0_0_4_0  OBJ       0
    b_2_0_0_5_0  OBJ       0
    b_2_0_0_6_0  OBJ       0
    b_2_0_0_7_0  OBJ       0
    b_2_0_1_1_0  OBJ       0
    b_2_0_1_2_0  OBJ       0
    b_2_0_1_3_0  OBJ       0
    b_2_0_1_4_0  OBJ       0
    b_2_0_1_5_0  OBJ       0
    b_2_0_1_6_0  OBJ       0
    b_2_0_1_7_0  OBJ       0
    b_2_0_2_1_0  OBJ       0
    b_2_0_2_2_0  OBJ       0
    b_2_0_2_3_0  OBJ       0
    b_2_0_2_4_0  OBJ       0
    b_2_0_2_5_0  OBJ       0
    b_2_0_2_6_0  OBJ       0
    b_2_0_2_7_0  OBJ       0
    b_2_0_3_1_0  OBJ       0
    b_2_0_3_2_0  OBJ       0
    b_2_0_3_3_0  OBJ       0
    b_2_0_3_4_0  OBJ       0
    b_2_0_3_5_0  OBJ       0
    b_2_0_3_6_0  OBJ       0
    b_2_0_3_7_0  OBJ       0
    b_2_0_4_1_0  OBJ       0
    b_2_0_4_2_0  OBJ       0
    b_2_0_4_3_0  OBJ       0
    b_2_0_4_4_0  OBJ       0
    b_2_0_4_5_0  OBJ       0
    b_2_0_4_6_0  OBJ       0
    b_2_0_4_7_0  OBJ       0
    b_2_0_5_1_0  OBJ       0
    b_2_0_5_2_0  OBJ       0
    b_2_0_5_3_0  OBJ       0
    b_2_0_5_4_0  OBJ       0
    b_2_0_5_5_0  OBJ       0
    b_2_0_5_6_0  OBJ       0
    b_2_0_5_7_0  OBJ       0
    b_2_0_6_1_0  OBJ       0
    b_2_0_6_2_0  OBJ       0
    b_2_0_6_3_0  OBJ       0
    b_2_0_6_4_0  OBJ       0
    b_2_0_6_5_0  OBJ       0
    b_2_0_6_6_0  OBJ       0
    b_2_0_6_7_0  OBJ       0
    b_2_0_7_1_0  OBJ       0
    b_2_0_7_2_0  OBJ       0
    b_2_0_7_3_0  OBJ       0
    b_2_0_7_4_0  OBJ       0
    b_2_0_7_5_0  OBJ       0
    b_2_0_7_6_0  OBJ       0
    b_2_0_7_7_0  OBJ       0
    c_3_0_0   OBJ       99
    c_3_0_0   mips_limit_1_3_0_0  1
    c_3_0_0   mips_limit_2_3_0_0  1
    c_3_0_0   mips_max_limit_1_0  1
    c_3_0_0   minimum_profit  99
    c_3_0_1   OBJ       99
    c_3_0_1   mips_limit_1_3_0_1  1
    c_3_0_1   mips_limit_2_3_0_1  1
    c_3_0_1   mips_max_limit_1_1  1
    c_3_0_1   minimum_profit  99
    c_3_0_2   OBJ       99
    c_3_0_2   mips_limit_1_3_0_2  1
    c_3_0_2   mips_limit_2_3_0_2  1
    c_3_0_2   mips_max_limit_1_2  1
    c_3_0_2   minimum_profit  99
    b_3_0_0_0_0  OBJ       0.0994
    b_3_0_0_0_0  link_path_mapping_coordination_1_3_0_0_0  1
    b_3_0_0_0_0  link_path_mapping_coordination_2_3_0_0_0  0.995
    b_3_0_0_0_0  node_path_mapping_coordination_1_3_0_0  0.995
    b_3_0_0_0_0  node_path_mapping_coordination_2_3_0_0  0.995
    b_3_0_0_0_0  bandwidth_overprovisioning_3_3_0  -0.995
    b_3_0_0_0_0  bandwidth_max_limit_0_0  1
    b_3_0_0_0_0  minimum_profit  0.0994
    b_3_0_1_0_0  OBJ       0.0994
    b_3_0_1_0_0  link_path_mapping_coordination_1_3_0_1_0  1
    b_3_0_1_0_0  link_path_mapping_coordination_2_3_0_1_0  0.995
    b_3_0_1_0_0  node_path_mapping_coordination_1_3_0_0  0.995
    b_3_0_1_0_0  node_path_mapping_coordination_2_3_0_1  0.995
    b_3_0_1_0_0  bandwidth_overprovisioning_3_3_0  -0.995
    b_3_0_1_0_0  bandwidth_max_limit_1_0  1
    b_3_0_1_0_0  minimum_profit  0.0994
    b_3_0_2_0_0  OBJ       0.0994
    b_3_0_2_0_0  link_path_mapping_coordination_1_3_0_2_0  1
    b_3_0_2_0_0  link_path_mapping_coordination_2_3_0_2_0  0.995
    b_3_0_2_0_0  node_path_mapping_coordination_1_3_0_1  0.995
    b_3_0_2_0_0  node_path_mapping_coordination_2_3_0_0  0.995
    b_3_0_2_0_0  bandwidth_overprovisioning_3_3_0  -0.995
    b_3_0_2_0_0  bandwidth_max_limit_2_0  1
    b_3_0_2_0_0  minimum_profit  0.0994
    b_3_0_3_0_0  OBJ       0.0994
    b_3_0_3_0_0  link_path_mapping_coordination_1_3_0_3_0  1
    b_3_0_3_0_0  link_path_mapping_coordination_2_3_0_3_0  0.995
    b_3_0_3_0_0  node_path_mapping_coordination_1_3_0_1  0.995
    b_3_0_3_0_0  node_path_mapping_coordination_2_3_0_1  0.995
    b_3_0_3_0_0  bandwidth_overprovisioning_3_3_0  -0.995
    b_3_0_3_0_0  bandwidth_max_limit_3_0  1
    b_3_0_3_0_0  minimum_profit  0.0994
    b_3_0_4_0_0  OBJ       0.0994
    b_3_0_4_0_0  link_path_mapping_coordination_1_3_0_4_0  1
    b_3_0_4_0_0  link_path_mapping_coordination_2_3_0_4_0  0.995
    b_3_0_4_0_0  node_path_mapping_coordination_1_3_0_2  0.995
    b_3_0_4_0_0  node_path_mapping_coordination_2_3_0_0  0.995
    b_3_0_4_0_0  bandwidth_overprovisioning_3_3_0  -0.995
    b_3_0_4_0_0  bandwidth_max_limit_4_0  1
    b_3_0_4_0_0  minimum_profit  0.0994
    b_3_0_5_0_0  OBJ       0.0994
    b_3_0_5_0_0  link_path_mapping_coordination_1_3_0_5_0  1
    b_3_0_5_0_0  link_path_mapping_coordination_2_3_0_5_0  0.995
    b_3_0_5_0_0  node_path_mapping_coordination_1_3_0_2  0.995
    b_3_0_5_0_0  node_path_mapping_coordination_2_3_0_1  0.995
    b_3_0_5_0_0  bandwidth_overprovisioning_3_3_0  -0.995
    b_3_0_5_0_0  bandwidth_max_limit_5_0  1
    b_3_0_5_0_0  minimum_profit  0.0994
    b_3_0_6_0_0  OBJ       -0.0001
    b_3_0_6_0_0  link_path_mapping_coordination_1_3_0_6_0  1
    b_3_0_6_0_0  link_path_mapping_coordination_2_3_0_6_0  0.995
    b_3_0_6_0_0  node_path_mapping_coordination_1_3_0_0  0.995
    b_3_0_6_0_0  bandwidth_max_limit_6_0  1
    b_3_0_6_0_0  minimum_profit  -0.0001
    b_3_0_7_0_0  OBJ       -0.0001
    b_3_0_7_0_0  link_path_mapping_coordination_1_3_0_7_0  1
    b_3_0_7_0_0  link_path_mapping_coordination_2_3_0_7_0  0.995
    b_3_0_7_0_0  node_path_mapping_coordination_1_3_0_1  0.995
    b_3_0_7_0_0  bandwidth_max_limit_7_0  1
    b_3_0_7_0_0  minimum_profit  -0.0001
    b_3_0_0_1_0  OBJ       0
    b_3_0_0_2_0  OBJ       0
    b_3_0_0_3_0  OBJ       0
    b_3_0_0_4_0  OBJ       0
    b_3_0_0_5_0  OBJ       0
    b_3_0_0_6_0  OBJ       0
    b_3_0_0_7_0  OBJ       0
    b_3_0_1_1_0  OBJ       0
    b_3_0_1_2_0  OBJ       0
    b_3_0_1_3_0  OBJ       0
    b_3_0_1_4_0  OBJ       0
    b_3_0_1_5_0  OBJ       0
    b_3_0_1_6_0  OBJ       0
    b_3_0_1_7_0  OBJ       0
    b_3_0_2_1_0  OBJ       0
    b_3_0_2_2_0  OBJ       0
    b_3_0_2_3_0  OBJ       0
    b_3_0_2_4_0  OBJ       0
    b_3_0_2_5_0  OBJ       0
    b_3_0_2_6_0  OBJ       0
    b_3_0_2_7_0  OBJ       0
    b_3_0_3_1_0  OBJ       0
    b_3_0_3_2_0  OBJ       0
    b_3_0_3_3_0  OBJ       0
    b_3_0_3_4_0  OBJ       0
    b_3_0_3_5_0  OBJ       0
    b_3_0_3_6_0  OBJ       0
    b_3_0_3_7_0  OBJ       0
    b_3_0_4_1_0  OBJ       0
    b_3_0_4_2_0  OBJ       0
    b_3_0_4_3_0  OBJ       0
    b_3_0_4_4_0  OBJ       0
    b_3_0_4_5_0  OBJ       0
    b_3_0_4_6_0  OBJ       0
    b_3_0_4_7_0  OBJ       0
    b_3_0_5_1_0  OBJ       0
    b_3_0_5_2_0  OBJ       0
    b_3_0_5_3_0  OBJ       0
    b_3_0_5_4_0  OBJ       0
    b_3_0_5_5_0  OBJ       0
    b_3_0_5_6_0  OBJ       0
    b_3_0_5_7_0  OBJ       0
    b_3_0_6_1_0  OBJ       0
    b_3_0_6_2_0  OBJ       0
    b_3_0_6_3_0  OBJ       0
    b_3_0_6_4_0  OBJ       0
    b_3_0_6_5_0  OBJ       0
    b_3_0_6_6_0  OBJ       0
    b_3_0_6_7_0  OBJ       0
    b_3_0_7_1_0  OBJ       0
    b_3_0_7_2_0  OBJ       0
    b_3_0_7_3_0  OBJ       0
    b_3_0_7_4_0  OBJ       0
    b_3_0_7_5_0  OBJ       0
    b_3_0_7_6_0  OBJ       0
    b_3_0_7_7_0  OBJ       0
    c_4_0_0   OBJ       9999
    c_4_0_0   mips_limit_1_4_0_0  1
    c_4_0_0   mips_limit_2_4_0_0  1
    c_4_0_0   mips_max_limit_1_0  1
    c_4_0_0   minimum_profit  9999
    c_4_0_1   OBJ       9999
    c_4_0_1   mips_limit_1_4_0_1  1
    c_4_0_1   mips_limit_2_4_0_1  1
    c_4_0_1   mips_max_limit_1_1  1
    c_4_0_1   minimum_profit  9999
    c_4_0_2   OBJ       9999
    c_4_0_2   mips_limit_1_4_0_2  1
    c_4_0_2   mips_limit_2_4_0_2  1
    c_4_0_2   mips_max_limit_1_2  1
    c_4_0_2   minimum_profit  9999
    b_4_0_0_0_0  OBJ       0.9999
    b_4_0_0_0_0  link_path_mapping_coordination_1_4_0_0_0  1
    b_4_0_0_0_0  link_path_mapping_coordination_2_4_0_0_0  1
    b_4_0_0_0_0  node_path_mapping_coordination_1_4_0_0  1
    b_4_0_0_0_0  node_path_mapping_coordination_2_4_0_0  1
    b_4_0_0_0_0  bandwidth_overprovisioning_3_4_0  -1
    b_4_0_0_0_0  bandwidth_max_limit_0_0  1
    b_4_0_0_0_0  minimum_profit  0.9999
    b_4_0_1_0_0  OBJ       0.9999
    b_4_0_1_0_0  link_path_mapping_coordination_1_4_0_1_0  1
    b_4_0_1_0_0  link_path_mapping_coordination_2_4_0_1_0  1
    b_4_0_1_0_0  node_path_mapping_coordination_1_4_0_0  1
    b_4_0_1_0_0  node_path_mapping_coordination_2_4_0_1  1
    b_4_0_1_0_0  bandwidth_overprovisioning_3_4_0  -1
    b_4_0_1_0_0  bandwidth_max_limit_1_0  1
    b_4_0_1_0_0  minimum_profit  0.9999
    b_4_0_2_0_0  OBJ       0.9999
    b_4_0_2_0_0  link_path_mapping_coordination_1_4_0_2_0  1
    b_4_0_2_0_0  link_path_mapping_coordination_2_4_0_2_0  1
    b_4_0_2_0_0  node_path_mapping_coordination_1_4_0_1  1
    b_4_0_2_0_0  node_path_mapping_coordination_2_4_0_0  1
    b_4_0_2_0_0  bandwidth_overprovisioning_3_4_0  -1
    b_4_0_2_0_0  bandwidth_max_limit_2_0  1
    b_4_0_2_0_0  minimum_profit  0.9999
    b_4_0_3_0_0  OBJ       0.9999
    b_4_0_3_0_0  link_path_mapping_coordination_1_4_0_3_0  1
    b_4_0_3_0_0  link_path_mapping_coordination_2_4_0_3_0  1
    b_4_0_3_0_0  node_path_mapping_coordination_1_4_0_1  1
    b_4_0_3_0_0  node_path_mapping_coordination_2_4_0_1  1
    b_4_0_3_0_0  bandwidth_overprovisioning_3_4_0  -1
    b_4_0_3_0_0  bandwidth_max_limit_3_0  1
    b_4_0_3_0_0  minimum_profit  0.9999
    b_4_0_4_0_0  OBJ       0.9999
    b_4_0_4_0_0  link_path_mapping_coordination_1_4_0_4_0  1
    b_4_0_4_0_0  link_path_mapping_coordination_2_4_0_4_0  1
    b_4_0_4_0_0  node_path_mapping_coordination_1_4_0_2  1
    b_4_0_4_0_0  node_path_mapping_coordination_2_4_0_0  1
    b_4_0_4_0_0  bandwidth_overprovisioning_3_4_0  -1
    b_4_0_4_0_0  bandwidth_max_limit_4_0  1
    b_4_0_4_0_0  minimum_profit  0.9999
    b_4_0_5_0_0  OBJ       0.9999
    b_4_0_5_0_0  link_path_mapping_coordination_1_4_0_5_0  1
    b_4_0_5_0_0  link_path_mapping_coordination_2_4_0_5_0  1
    b_4_0_5_0_0  node_path_mapping_coordination_1_4_0_2  1
    b_4_0_5_0_0  node_path_mapping_coordination_2_4_0_1  1
    b_4_0_5_0_0  bandwidth_overprovisioning_3_4_0  -1
    b_4_0_5_0_0  bandwidth_max_limit_5_0  1
    b_4_0_5_0_0  minimum_profit  0.9999
    b_4_0_6_0_0  OBJ       -0.0001
    b_4_0_6_0_0  link_path_mapping_coordination_1_4_0_6_0  1
    b_4_0_6_0_0  link_path_mapping_coordination_2_4_0_6_0  1
    b_4_0_6_0_0  node_path_mapping_coordination_1_4_0_0  1
    b_4_0_6_0_0  bandwidth_max_limit_6_0  1
    b_4_0_6_0_0  minimum_profit  -0.0001
    b_4_0_7_0_0  OBJ       -0.0001
    b_4_0_7_0_0  link_path_mapping_coordination_1_4_0_7_0  1
    b_4_0_7_0_0  link_path_mapping_coordination_2_4_0_7_0  1
    b_4_0_7_0_0  node_path_mapping_coordination_1_4_0_1  1
    b_4_0_7_0_0  bandwidth_max_limit_7_0  1
    b_4_0_7_0_0  minimum_profit  -0.0001
RHS
    RHS1      OBJ       1.0003875733590910e+08
    RHS1      mips_limit_1_0_0_2  0.01
    RHS1      mips_limit_2_0_0_2  0.6
    RHS1      link_path_mapping_coordination_1_0_0_4_0  0.01
    RHS1      link_path_mapping_coordination_2_0_0_4_0  10000
    RHS1      node_path_mapping_coordination_1_0_0_2  10000
    RHS1      node_path_mapping_coordination_2_0_0_0  10000
    RHS1      bandwidth_overprovisioning_3_0_0  -10000
    RHS1      mips_limit_1_1_0_2  0.01
    RHS1      mips_limit_2_1_0_2  0.6
    RHS1      link_path_mapping_coordination_1_1_0_4_0  0.01
    RHS1      link_path_mapping_coordination_2_1_0_4_0  10000
    RHS1      node_path_mapping_coordination_1_1_0_2  10000
    RHS1      node_path_mapping_coordination_2_1_0_0  10000
    RHS1      bandwidth_overprovisioning_3_1_0  -10000
    RHS1      mips_limit_1_2_0_2  0.01
    RHS1      mips_limit_2_2_0_2  1.6
    RHS1      link_path_mapping_coordination_1_2_0_4_0  0.01
    RHS1      link_path_mapping_coordination_2_2_0_4_0  10000
    RHS1      node_path_mapping_coordination_1_2_0_2  10000
    RHS1      node_path_mapping_coordination_2_2_0_0  10000
    RHS1      bandwidth_overprovisioning_3_2_0  -10000
    RHS1      mips_limit_1_3_0_2  0.01
    RHS1      mips_limit_2_3_0_2  0.6
    RHS1      link_path_mapping_coordination_1_3_0_5_0  0.01
    RHS1      link_path_mapping_coordination_2_3_0_5_0  10000
    RHS1      node_path_mapping_coordination_1_3_0_2  10000
    RHS1      node_path_mapping_coordination_2_3_0_1  10000
    RHS1      bandwidth_overprovisioning_3_3_0  -10000
    RHS1      mips_limit_1_4_0_2  0.01
    RHS1      mips_limit_2_4_0_2  1
    RHS1      mips_max_limit_1_0  95.0545
    RHS1      mips_max_limit_1_1  95.0545
    RHS1      mips_max_limit_1_2  973.004090909091
    RHS1      mips_max_limit_2_0  59
    RHS1      mips_max_limit_2_1  59
    RHS1      mips_max_limit_2_2  5.9399181818181819e+02
    RHS1      radio_max_limit_0_0  498240
    RHS1      radio_max_limit_1_0  497007
    RHS1      link_path_mapping_coordination_1_4_0_5_0  0.01
    RHS1      link_path_mapping_coordination_2_4_0_5_0  12500
    RHS1      node_path_mapping_coordination_1_4_0_2  12500
    RHS1      node_path_mapping_coordination_2_4_0_1  12500
    RHS1      bandwidth_overprovisioning_3_4_0  -12500
    RHS1      bandwidth_max_limit_0_0  4800000
    RHS1      bandwidth_max_limit_1_0  4800000
    RHS1      bandwidth_max_limit_2_0  4800000
    RHS1      bandwidth_max_limit_3_0  4800000
    RHS1      bandwidth_max_limit_4_0  4800000
    RHS1      bandwidth_max_limit_5_0  4787500
    RHS1      bandwidth_max_limit_6_0  4800000
    RHS1      bandwidth_max_limit_7_0  4800000
    RHS1      minimum_profit  1.0003875097583373e+08
BOUNDS
ENDATA
